set TASKS:=A B C D;
set STATIONS:=1 2 3 4 5 6;
set IP:=(A,B) (C,D);
set ZS:=(A,B);
set ZD:=(C,D);
param T:=A 20
B 20
C 15
D 20;
param C:=1 40 2 40 3 40 4 20 5 20 6 20;
param Cost:=1 20 2 20 3 20 4 20 5 20 6 20;